\* Source Pyomo model name=unknown *\

min 
x35:
+0.017249616183575203 x1
+0 x10
+0 x11
+0 x12
+0 x13
+0 x14
+0 x15
+0 x16
+0 x17
+0 x18
+0 x19
+0.039502829075609334 x2
+0 x20
+0 x3
+0 x4
+0.014795764201011398 x5
+0 x6
+0 x7
+0 x8
+0 x9

s.t.

c_e_x36_:
+1 x1
-1 x21
= 0

c_e_x37_:
-1 x23
+1 x5
= 0

c_e_x38_:
+1 x2
-1 x25
= 0

c_e_x39_:
+1 x3
-0.48077387840584684 x30
= 0

c_e_x40_:
-0.36420046603606349 x31
+1 x4
= 0

c_e_x41_:
-0.86003991608672015 x32
+1 x6
= 0

c_e_x42_:
-0.90834448708002113 x33
+1 x8
= 0

c_e_x43_:
-1 x21
+1 x30
= 0

c_e_x44_:
-1 x24
+1 x31
= 0

c_e_x45_:
-1 x25
+1 x32
= 0

c_e_x46_:
-1 x23
+1 x33
= 0

c_e_x47_:
-1 x21
+1 x30
= 0

c_e_x48_:
-1 x23
+1 x33
= 0

c_e_x49_:
-1 x24
+1 x31
= 0

c_e_x50_:
-1 x25
+1 x32
= 0

c_e_x51_:
-1 x22
+1 x3
= 0

c_e_x52_:
-1 x27
+1 x4
= 0

c_e_x53_:
-1 x28
+1 x6
= 0

c_e_x54_:
-1 x29
+1 x8
= 0

c_e_x55_:
+1 x26
= 1009.7071881576912

c_e_x56_:
-1 x26
+1 x7
= 0

c_e_x57_:
+1 x22
-1 x24
+1 x28
+1 x29
= 0

c_e_x58_:
-1 x26
+1 x27
= 0

c_e_x59_:
-1 x22
-1 x28
-1 x29
+1 x9
= 0

c_e_x60_:
+1 x10
-1 x27
= 0

